<number of tasks>
250

<cycle time>
1000

<order strength>
0.595


<task times>
1 87
2 186
3 148
4 63
5 519
6 226
7 139
8 76
9 247
10 50
11 173
12 50
13 45
14 233
15 278
16 176
17 482
18 282
19 234
20 298
21 187
22 259
23 36
24 183
25 62
26 513
27 21
28 499
29 543
30 98
31 301
32 165
33 41
34 488
35 33
36 76
37 67
38 103
39 277
40 289
41 153
42 41
43 24
44 191
45 374
46 252
47 429
48 226
49 303
50 199
51 537
52 454
53 358
54 517
55 202
56 552
57 162
58 37
59 192
60 126
61 275
62 98
63 540
64 188
65 46
66 284
67 113
68 225
69 77
70 92
71 44
72 66
73 267
74 105
75 64
76 69
77 335
78 225
79 197
80 126
81 216
82 321
83 50
84 379
85 101
86 28
87 265
88 191
89 336
90 255
91 538
92 452
93 460
94 236
95 478
96 84
97 62
98 32
99 103
100 209
101 234
102 125
103 365
104 534
105 497
106 457
107 242
108 382
109 328
110 519
111 209
112 160
113 365
114 159
115 74
116 127
117 468
118 42
119 537
120 182
121 82
122 121
123 141
124 190
125 197
126 227
127 512
128 208
129 140
130 27
131 149
132 95
133 69
134 58
135 231
136 567
137 63
138 492
139 137
140 103
141 63
142 209
143 500
144 152
145 395
146 21
147 190
148 220
149 204
150 428
151 191
152 75
153 118
154 99
155 432
156 275
157 56
158 211
159 162
160 360
161 175
162 64
163 545
164 473
165 415
166 162
167 396
168 336
169 109
170 64
171 401
172 233
173 441
174 180
175 108
176 468
177 150
178 173
179 129
180 132
181 356
182 537
183 128
184 456
185 475
186 227
187 503
188 132
189 330
190 501
191 136
192 110
193 77
194 132
195 60
196 197
197 196
198 464
199 471
200 69
201 339
202 135
203 47
204 552
205 366
206 503
207 127
208 384
209 266
210 240
211 180
212 213
213 42
214 108
215 196
216 40
217 155
218 57
219 525
220 59
221 44
222 40
223 94
224 303
225 168
226 515
227 179
228 540
229 75
230 464
231 542
232 590
233 274
234 134
235 94
236 124
237 50
238 423
239 155
240 488
241 183
242 22
243 469
244 25
245 264
246 133
247 170
248 88
249 78
250 161

<precedence relations>
1,8
2,7
2,9
2,40
2,41
3,10
3,11
3,12
4,10
4,11
4,12
5,10
5,11
5,12
6,10
6,11
6,12
7,13
8,15
9,14
10,15
10,16
10,17
10,18
11,15
11,16
11,17
11,18
12,15
12,16
12,17
12,18
13,19
14,22
15,19
15,20
15,21
15,24
16,25
17,19
17,20
17,21
17,22
17,23
17,24
17,25
18,21
18,52
19,26
19,30
19,57
20,27
20,29
20,30
21,28
21,29
21,31
21,32
22,48
22,49
22,50
23,29
23,30
24,118
25,29
26,33
27,35
28,36
29,34
29,37
29,38
29,39
29,40
29,41
30,39
30,42
30,43
31,38
31,39
31,40
31,41
32,38
32,39
32,40
32,41
33,48
34,44
35,45
36,49
37,46
38,47
38,97
39,50
39,67
40,48
41,49
42,51
42,52
42,74
43,48
43,82
44,57
45,53
46,54
47,55
48,61
49,57
49,60
49,68
50,56
50,58
50,59
50,66
51,60
51,79
52,92
52,97
53,62
54,65
55,66
56,64
57,65
57,67
57,97
58,63
58,65
58,68
58,74
61,68
62,69
63,71
64,72
65,70
65,80
65,89
66,73
67,74
68,73
69,75
70,76
71,79
72,78
73,77
73,79
73,80
73,83
73,84
74,81
74,82
75,87
76,88
77,85
78,86
79,90
80,250
81,161
82,87
83,90
84,89
84,95
85,92
86,91
87,92
87,94
88,180
89,236
90,93
91,97
92,99
92,122
93,96
93,98
94,95
94,104
95,100
95,102
95,103
95,105
95,127
96,101
96,104
96,122
98,105
99,104
100,108
101,109
102,110
103,111
104,106
104,107
104,112
104,114
105,113
105,133
105,181
106,115
107,116
108,118
109,119
110,120
111,117
112,118
112,121
113,122
113,140
114,152
114,180
114,212
115,125
116,123
117,124
118,126
119,158
120,143
121,127
122,125
122,144
122,169
123,128
124,129
125,130
125,134
126,131
126,132
126,133
126,135
127,131
127,140
127,144
128,136
129,142
130,137
131,138
131,141
131,181
132,139
132,140
132,143
132,144
132,194
133,140
133,172
133,203
134,151
134,152
134,221
135,142
136,148
137,147
138,149
139,150
140,145
141,146
141,151
141,152
141,221
142,151
142,183
143,193
143,221
144,168
144,180
144,222
145,153
146,154
147,157
148,156
149,157
150,158
151,155
151,159
151,178
151,214
151,237
152,160
152,161
152,162
152,194
153,164
154,165
155,166
156,167
157,163
157,168
157,172
158,169
159,184
159,194
160,171
160,195
160,229
161,240
162,170
162,213
162,240
163,173
164,174
165,179
166,180
167,181
168,175
168,176
168,184
168,211
169,177
169,183
169,193
170,179
170,182
170,183
171,244
172,178
172,221
173,185
174,187
175,188
176,189
177,190
178,186
178,192
178,194
178,231
179,239
180,220
180,236
180,240
181,204
181,240
182,191
182,193
183,195
184,193
185,196
186,197
187,198
188,203
189,201
190,204
191,199
192,200
193,202
194,205
195,246
196,207
197,210
198,208
199,211
200,212
201,209
202,206
203,213
203,214
204,210
204,211
204,212
205,213
205,229
205,239
206,215
207,216
208,217
209,221
210,218
210,222
212,219
212,220
213,220
213,236
214,229
215,223
216,227
217,228
218,224
218,229
219,225
220,226
220,230
221,231
221,238
222,229
223,232
224,233
225,234
226,235
227,236
228,237
230,238
230,241
230,248
231,239
231,240
231,241
232,244
233,243
234,242
235,244
238,245
239,249
241,246
242,248
243,247
245,249
246,250

<end>
